SPARKNaCl/why3-z3/sparknacl-car.adb_102_33_initialization_1.smt2
;; produced by z3_gnatprove.drv ;;
(set-info :smt-lib-version 2.5)
(set-info :source |VC generated by SPARK 2014|)
(set-info :category industrial)
(set-info :status unknown)
;;; generated by SMT-LIB2 driver
;;; SMT-LIB2 driver: bit-vectors, common part
;;; SMT-LIB2: integer arithmetic
(define-fun __cdiv ((x Int) (y Int)) Int (ite (>= x 0) (div x y) (- (div (- x) y))))
(define-fun __cmod ((x Int) (y Int)) Int (ite (>= x 0) (mod x y) (- (mod (- x) y))))
(declare-datatypes ()
  ((int__ref (int__refqtmk (int__content Int)))))

;; "mod"
(define-fun mod1 ((x Int) (y Int)) Int
  (ite (<= 0 y) (mod x y) (- (mod (- x) y))))

(declare-sort gf32_any_limb 0)

;; "gf32_any_limb'int"
(declare-fun gf32_any_limbqtint (gf32_any_limb) Int)

;; "gf32_any_limb'axiom"
(assert
  (forall ((i gf32_any_limb))
    (and
      (<= (- 65536) (gf32_any_limbqtint i))
      (<= (gf32_any_limbqtint i) 132051011))))

;; "in_range"
(define-fun in_range ((x Int)) Bool
  (and (<= (- 65536) x) (<= x 132051011)))

;; "to_rep"
(define-fun to_rep ((x gf32_any_limb)) Int
  (gf32_any_limbqtint x))

;; "of_rep"
(declare-fun of_rep (Int) gf32_any_limb)

;; "inversion_axiom"
(assert
  (forall ((x gf32_any_limb))
    (! (= (of_rep (to_rep x)) x) :pattern ((to_rep x)) )))

;; "range_axiom"
(assert
  (forall ((x gf32_any_limb))
    (! (in_range (to_rep x)) :pattern ((to_rep x)) )))

;; "coerce_axiom"
(assert
  (forall ((x Int))
    (! (=> (in_range x) (= (to_rep (of_rep x)) x)) :pattern ((to_rep
                                                               (of_rep x))) )))

(declare-sort map1 0)

;; "has_bounds"
(declare-fun has_bounds (map1
  Int
  Int) Bool)

;; "get"
(declare-fun get (map1
  Int) gf32_any_limb)

(declare-const x map1)

(declare-datatypes ()
  ((gf32_any_limb__init_wrapper
   (gf32_any_limb__init_wrapperqtmk
   (rec__value gf32_any_limb)(us_attr__init Bool)))))

(declare-sort map2 0)

(declare-datatypes ()
  ((map__ref (map__refqtmk (map__content map2)))))

;; "has_bounds"
(declare-fun has_bounds1 (map2
  Int
  Int) Bool)

;; "get"
(declare-fun get1 (map2
  Int) gf32_any_limb__init_wrapper)

;; "set"
(declare-fun set (map2
  Int
  gf32_any_limb__init_wrapper) map2)

;; "set_eq"
(assert
  (forall ((a map2) (i Int) (v gf32_any_limb__init_wrapper))
    (! (= (get1 (set a i v) i) v) :pattern ((set a i v)) )))

;; "set_neq"
(assert
  (forall ((a map2) (i Int) (v gf32_any_limb__init_wrapper))
    (! (forall ((j Int))
         (! (=> (not (= i j)) (= (get1 (set a i v) j) (get1 a j))) :pattern (
         (get1
           a
           j)) :pattern ((get1 (set a i v) j)) )) :pattern ((set a i v)) )))

;; "set_has_bounds"
(assert
  (forall ((a map2) (i Int) (f Int) (l Int) (v gf32_any_limb__init_wrapper))
    (! (=>
         (and (<= f i) (<= i l))
         (=> (has_bounds1 a f l) (has_bounds1 (set a i v) f l))) :pattern (
    (has_bounds1
      (set a i v)
      f
      l)) )))

;; "carrying_plus_one"
(define-fun carrying_plus_one ((param__g map2) (param__x map1) (param__i Int)) Bool
  (and (and (and (let ((temp___176 (to_rep (get param__x 0))))
                   (and (ite (<= 65536 temp___176) true false) (ite (<= temp___176 65573)
                                                                 true
                                                                 false))) (= 
  (to_rep
    (rec__value (get1 param__g 0))) (mod1 (to_rep (get param__x 0)) 65536))) 
  (let ((temp___178 (to_rep (rec__value (get1 param__g 0)))))
    (and (ite (<= 0 temp___178) true false) (ite (<= temp___178 37)
                                              true
                                              false)))) (ite (forall 
                                                               ((k Int))
                                                               (=>
                                                                 (and
                                                                   (<= 1 k)
                                                                   (<= k param__i))
                                                                 (and
                                                                   (= 
                                                                   (to_rep
                                                                    (rec__value
                                                                    (get1
                                                                    param__g
                                                                    k))) 0)
                                                                   (= 
                                                                   (to_rep
                                                                    (get
                                                                    param__x
                                                                    k)) 65535))))
                                                          true
                                                          false)))

;; "carrying_minus_one"
(define-fun carrying_minus_one ((param__g map2) (param__x map1) (param__i Int)) Bool
  (and (and (and (let ((temp___181 (to_rep (get param__x 0))))
                   (and (ite (<= (- 38) temp___181) true false) (ite (<= temp___181 (- 1))
                                                                  true
                                                                  false))) (= 
  (to_rep
    (rec__value (get1 param__g 0))) (mod1 (to_rep (get param__x 0)) 65536))) 
  (let ((temp___183 (to_rep (rec__value (get1 param__g 0)))))
    (and (ite (<= 65498 temp___183) true false) (ite (<= temp___183 65535)
                                                  true
                                                  false)))) (ite (forall 
                                                                   ((k Int))
                                                                   (=>
                                                                    (and
                                                                    (<= 1 k)
                                                                    (<= k param__i))
                                                                    (and
                                                                    (= 
                                                                    (to_rep
                                                                    (rec__value
                                                                    (get1
                                                                    param__g
                                                                    k))) 65535)
                                                                    (= 
                                                                    (to_rep
                                                                    (get
                                                                    param__x
                                                                    k)) 0))))
                                                              true
                                                              false)))

;; "power"
(declare-fun power (Int
  Int) Int)

;; "Power_0"
(assert (forall ((x1 Int)) (= (power x1 0) 1)))

;; "Power_s"
(assert
  (forall ((x1 Int) (n Int))
    (=> (<= 0 n) (= (power x1 (+ n 1)) (* x1 (power x1 n))))))

;; "Power_s_alt"
(assert
  (forall ((x1 Int) (n Int))
    (=> (< 0 n) (= (power x1 n) (* x1 (power x1 (- n 1)))))))

;; "Power_1"
(assert (forall ((x1 Int)) (= (power x1 1) x1)))

;; "Power_sum"
(assert
  (forall ((x1 Int) (n Int) (m Int))
    (=>
      (<= 0 n)
      (=> (<= 0 m) (= (power x1 (+ n m)) (* (power x1 n) (power x1 m)))))))

;; "Power_mult"
(assert
  (forall ((x1 Int) (n Int) (m Int))
    (=> (<= 0 n) (=> (<= 0 m) (= (power x1 (* n m)) (power (power x1 n) m))))))

;; "Power_comm1"
(assert
  (forall ((x1 Int) (y Int))
    (=>
      (= (* x1 y) (* y x1))
      (forall ((n Int))
        (=> (<= 0 n) (= (* (power x1 n) y) (* y (power x1 n))))))))

;; "Power_comm2"
(assert
  (forall ((x1 Int) (y Int))
    (=>
      (= (* x1 y) (* y x1))
      (forall ((n Int))
        (=> (<= 0 n) (= (power (* x1 y) n) (* (power x1 n) (power y n))))))))

;; "Power_non_neg"
(assert
  (forall ((x1 Int) (y Int))
    (=> (and (<= 0 x1) (<= 0 y)) (<= 0 (power x1 y)))))

;; "Power_pos"
(assert
  (forall ((x1 Int) (y Int)) (=> (and (< 0 x1) (<= 0 y)) (< 0 (power x1 y)))))

;; "Power_monotonic"
(assert
  (forall ((x1 Int) (n Int) (m Int))
    (=>
      (and (< 0 x1) (and (<= 0 n) (<= n m)))
      (<= (power x1 n) (power x1 m)))))

;; "shift_right_arithmetic"
(define-fun shift_right_arithmetic ((x1 Int) (n Int) (us Int)) Int
  (ite (< x1 0) (- (__cdiv (+ x1 1) (power 2 n)) 1) (__cdiv x1 (power 2 n))))

;; "in_range"
(define-fun in_range1 ((x1 Int)) Bool
  (and (<= (- 2147483648) x1) (<= x1 2147483647)))

;; "asr32_16"
(declare-fun asr32_16 (Int) Int)

;; "asr32_16__function_guard"
(declare-fun asr32_16__function_guard (Int
  Int) Bool)

;; "in_range"
(define-fun in_range2 ((x1 Int)) Bool
  (and (<= 0 x1) (<= x1 65535)))

;; "dynamic_invariant"
(define-fun dynamic_invariant ((temp___expr_258 map1) (temp___is_init_254 Bool) (temp___skip_constant_255 Bool) (temp___do_toplevel_256 Bool) (temp___do_typ_inv_257 Bool)) Bool
  (and
    (=>
      (= temp___is_init_254 true)
      (=>
        (= temp___do_toplevel_256 true)
        (and
          (let ((temp___261 (to_rep (get temp___expr_258 0))))
            (and (<= (- 38) temp___261) (<= temp___261 65573)))
          (forall ((k Int))
            (=>
              (and (<= 1 k) (<= k 15))
              (in_range2 (to_rep (get temp___expr_258 k))))))))
    (has_bounds temp___expr_258 0 15)))

;; "in_range"
(define-fun in_range3 ((x1 Int)) Bool
  (and (<= (- 1) x1) (<= x1 1)))

(declare-sort gf16_normal_limb 0)

;; "to_rep"
(declare-fun to_rep1 (gf16_normal_limb) (_ BitVec 16))

;; "of_rep"
(declare-fun of_rep1 ((_ BitVec 16)) gf16_normal_limb)

;; "inversion_axiom"
(assert
  (forall ((x1 gf16_normal_limb))
    (! (= (of_rep1 (to_rep1 x1)) x1) :pattern ((to_rep1 x1)) )))

;; "range_axiom"
(assert true)

;; "coerce_axiom"
(assert
  (forall ((x1 (_ BitVec 16)))
    (! (= (to_rep1 (of_rep1 x1)) x1) :pattern ((to_rep1 (of_rep1 x1))) )))

(declare-const carry Int)

(declare-const r map2)

;; "r'unused"
(define-fun rqtunused () map__ref
  (map__refqtmk r))

;; "carry'unused"
(define-fun carryqtunused () int__ref
  (int__refqtmk carry))

;; "Assume"
(assert (dynamic_invariant x true false true true))

;; "Assume"
(assert true)

;; "Assume"
(assert (in_range3 carry))

;; "Assume"
(assert (has_bounds1 r 0 15))

;; "Assert"
(assert
  (and
    (let ((temp___378 (to_rep (get x 0))))
      (and (<= (- 38) temp___378) (<= temp___378 65573)))
    (forall ((k Int))
      (=> (and (<= 1 k) (<= k 15)) (in_range2 (to_rep (get x k)))))))

;; "o"
(define-fun o () gf32_any_limb
  (get x 0))

;; "get'result'unused"
(define-fun getqtresultqtunused () gf32_any_limb
  o)

(declare-const o1 Int)

;; "Ensures"
(assert (= (to_rep o) o1))

;; "to_rep'result'unused"
(define-fun to_repqtresultqtunused () Int
  o1)

;; "o"
(define-fun o2 () Int
  (asr32_16 o1))

;; "H"
(assert (asr32_16__function_guard o2 o1))

;; "H"
(assert (in_range1 o2))

;; "H"
(assert (= o2 (shift_right_arithmetic o1 16 32)))

;; "H"
(assert
  (ite (<= 0 o1)
    (= o2 (__cdiv o1 65536))
    (= o2 (- (__cdiv (+ o1 1) 65536) 1))))

;; "asr32_16'result'unused"
(define-fun asr32_16qtresultqtunused () Int
  o2)

;; "Ensures"
(assert (in_range3 o2))

;; "range_check_'result'unused"
(define-fun range_check_qtresultqtunused () Int
  o2)

(declare-const carry1 Int)

;; "carry'unused"
(define-fun carryqtunused1 () int__ref
  (int__refqtmk carry1))

;; "H"
(assert (= carry1 o2))

;; "o"
(define-fun o3 () gf32_any_limb
  (get x 0))

;; "get'result'unused"
(define-fun getqtresultqtunused1 () gf32_any_limb
  o3)

(declare-const o4 Int)

;; "Ensures"
(assert (= (to_rep o3) o4))

;; "to_rep'result'unused"
(define-fun to_repqtresultqtunused1 () Int
  o4)

;; "o"
(define-fun o5 () Int
  (mod1 o4 65536))

;; "mod_'result'unused"
(define-fun mod_qtresultqtunused () Int
  o5)

(declare-const o6 gf32_any_limb)

;; "Ensures"
(assert (= (to_rep o6) o5))

;; "of_rep'result'unused"
(define-fun of_repqtresultqtunused () gf32_any_limb
  o6)

;; "o"
(define-fun o7 () gf32_any_limb__init_wrapper
  (gf32_any_limb__init_wrapperqtmk o6 true))

;; "to_wrapper'result'unused"
(define-fun to_wrapperqtresultqtunused () gf32_any_limb__init_wrapper
  o7)

;; "map__content'result'unused"
(define-fun map__contentqtresultqtunused () map2
  r)

;; "o"
(define-fun o8 () map2
  (set r 0 o7))

;; "set'result'unused"
(define-fun setqtresultqtunused () map2
  o8)

(declare-const r1 map2)

;; "r'unused"
(define-fun rqtunused1 () map__ref
  (map__refqtmk r1))

;; "H"
(assert (= r1 o8))

;; "int__content'result'unused"
(define-fun int__contentqtresultqtunused () Int
  carry1)

;; "o"
(define-fun o9 () gf32_any_limb
  (get x 1))

;; "get'result'unused"
(define-fun getqtresultqtunused2 () gf32_any_limb
  o9)

(declare-const o10 Int)

;; "Ensures"
(assert (= (to_rep o9) o10))

;; "to_rep'result'unused"
(define-fun to_repqtresultqtunused2 () Int
  o10)

;; "o"
(define-fun o11 () Int
  (+ o10 carry1))

;; "infix +'result'unused"
(define-fun infix_plqtresultqtunused () Int
  o11)

;; "Ensures"
(assert (in_range o11))

;; "range_check_'result'unused"
(define-fun range_check_qtresultqtunused1 () Int
  o11)

(declare-const o12 gf32_any_limb)

;; "Ensures"
(assert (= (to_rep o12) o11))

;; "of_rep'result'unused"
(define-fun of_repqtresultqtunused1 () gf32_any_limb
  o12)

;; "o"
(define-fun o13 () gf32_any_limb__init_wrapper
  (gf32_any_limb__init_wrapperqtmk o12 true))

;; "to_wrapper'result'unused"
(define-fun to_wrapperqtresultqtunused1 () gf32_any_limb__init_wrapper
  o13)

;; "map__content'result'unused"
(define-fun map__contentqtresultqtunused1 () map2
  r1)

;; "o"
(define-fun o14 () map2
  (set r1 1 o13))

;; "set'result'unused"
(define-fun setqtresultqtunused1 () map2
  o14)

(declare-const r2 map2)

;; "r'unused"
(define-fun rqtunused2 () map__ref
  (map__refqtmk r2))

;; "H"
(assert (= r2 o14))

;; "Assert"
(assert (= (us_attr__init (get1 r2 0)) true))

;; "Assert"
(assert (in_range2 (to_rep (rec__value (get1 r2 0)))))

;; "Assert"
(assert
  (= (to_rep (rec__value (get1 r2 0))) (mod1 (to_rep (get x 0)) 65536)))

;; "Assert"
(assert (= (us_attr__init (get1 r2 1)) true))

;; "Assert"
(assert
  (let ((temp___404 (to_rep (rec__value (get1 r2 1)))))
    (and (<= (- 1) temp___404) (<= temp___404 65536))))

;; "Assert"
(assert (= (= carry1 1) (= (carrying_plus_one r2 x 0) true)))

;; "Assert"
(assert (= (= carry1 (- 1)) (= (carrying_minus_one r2 x 0) true)))

(declare-const i Int)

;; "i'unused"
(define-fun iqtunused () int__ref
  (int__refqtmk i))

;; "H"
(assert (= i 1))

;; "int__content'result'unused"
(define-fun int__contentqtresultqtunused1 () Int
  i)

;; "o"
(define-fun o15 () Bool
  (ite (<= i 14) true false))

;; "infix <='result'unused"
(define-fun infix_lseqqtresultqtunused () Bool
  o15)

;; "int__content'result'unused"
(define-fun int__contentqtresultqtunused2 () Int
  i)

;; "o"
(define-fun o16 () Bool
  (ite (<= 1 i) true false))

;; "infix <='result'unused"
(define-fun infix_lseqqtresultqtunused1 () Bool
  o16)

;; "o"
(define-fun o17 () Bool
  (and o16 o15))

;; "andb'result'unused"
(define-fun andbqtresultqtunused () Bool
  o17)

;; "H"
(assert (= o17 true))

;; "temp___loop_entry_422'unused"
(define-fun temp___loop_entry_422qtunused () map2
  r2)

;; "map__content'result'unused"
(define-fun map__contentqtresultqtunused2 () map2
  r2)

;; "temp___loop_entry_420'unused"
(define-fun temp___loop_entry_420qtunused () Int
  carry1)

;; "int__content'result'unused"
(define-fun int__contentqtresultqtunused3 () Int
  carry1)

;; "map__content'result'unused"
(define-fun map__contentqtresultqtunused3 () map2
  r2)

;; "int__content'result'unused"
(define-fun int__contentqtresultqtunused4 () Int
  i)

;; "temp___412"
(define-fun temp___412 () gf32_any_limb__init_wrapper
  (get1 r2 i))

;; "get'result'unused"
(define-fun getqtresultqtunused3 () gf32_any_limb__init_wrapper
  temp___412)

;; "Assert"
(assert (= (us_attr__init temp___412) true))

;; "o"
(define-fun o18 () gf32_any_limb
  (rec__value temp___412))

;; "of_wrapper'result'unused"
(define-fun of_wrapperqtresultqtunused () gf32_any_limb
  o18)

(declare-const o19 Int)

;; "Ensures"
(assert (= (to_rep o18) o19))

;; "to_rep'result'unused"
(define-fun to_repqtresultqtunused3 () Int
  o19)

;; "o"
(define-fun o20 () Int
  (asr32_16 o19))

;; "H"
(assert (asr32_16__function_guard o20 o19))

;; "H"
(assert (in_range1 o20))

;; "H"
(assert (= o20 (shift_right_arithmetic o19 16 32)))

;; "H"
(assert
  (ite (<= 0 o19)
    (= o20 (__cdiv o19 65536))
    (= o20 (- (__cdiv (+ o19 1) 65536) 1))))

;; "asr32_16'result'unused"
(define-fun asr32_16qtresultqtunused1 () Int
  o20)

;; "Ensures"
(assert (in_range3 o20))

;; "range_check_'result'unused"
(define-fun range_check_qtresultqtunused2 () Int
  o20)

(declare-const carry2 Int)

;; "carry'unused"
(define-fun carryqtunused2 () int__ref
  (int__refqtmk carry2))

;; "H"
(assert (= carry2 o20))

;; "map__content'result'unused"
(define-fun map__contentqtresultqtunused4 () map2
  r2)

;; "int__content'result'unused"
(define-fun int__contentqtresultqtunused5 () Int
  i)

;; "temp___417"
(define-fun temp___417 () gf32_any_limb__init_wrapper
  (get1 r2 i))

;; "get'result'unused"
(define-fun getqtresultqtunused4 () gf32_any_limb__init_wrapper
  temp___417)

;; "Assert"
(assert (= (us_attr__init temp___417) true))

;; "o"
(define-fun o21 () gf32_any_limb
  (rec__value temp___417))

;; "of_wrapper'result'unused"
(define-fun of_wrapperqtresultqtunused1 () gf32_any_limb
  o21)

(declare-const o22 Int)

;; "Ensures"
(assert (= (to_rep o21) o22))

;; "to_rep'result'unused"
(define-fun to_repqtresultqtunused4 () Int
  o22)

;; "o"
(define-fun o23 () Int
  (mod1 o22 65536))

;; "mod_'result'unused"
(define-fun mod_qtresultqtunused1 () Int
  o23)

(declare-const o24 gf32_any_limb)

;; "Ensures"
(assert (= (to_rep o24) o23))

;; "of_rep'result'unused"
(define-fun of_repqtresultqtunused2 () gf32_any_limb
  o24)

;; "o"
(define-fun o25 () gf32_any_limb__init_wrapper
  (gf32_any_limb__init_wrapperqtmk o24 true))

;; "to_wrapper'result'unused"
(define-fun to_wrapperqtresultqtunused2 () gf32_any_limb__init_wrapper
  o25)

;; "int__content'result'unused"
(define-fun int__contentqtresultqtunused6 () Int
  i)

;; "map__content'result'unused"
(define-fun map__contentqtresultqtunused5 () map2
  r2)

;; "o"
(define-fun o26 () map2
  (set r2 i o25))

;; "set'result'unused"
(define-fun setqtresultqtunused2 () map2
  o26)

(declare-const r3 map2)

;; "r'unused"
(define-fun rqtunused3 () map__ref
  (map__refqtmk r3))

;; "H"
(assert (= r3 o26))

;; "int__content'result'unused"
(define-fun int__contentqtresultqtunused7 () Int
  carry2)

;; "int__content'result'unused"
(define-fun int__contentqtresultqtunused8 () Int
  i)

;; "o"
(define-fun o27 () Int
  (+ i 1))

;; "infix +'result'unused"
(define-fun infix_plqtresultqtunused1 () Int
  o27)

;; "o"
(define-fun o28 () gf32_any_limb
  (get x o27))

;; "get'result'unused"
(define-fun getqtresultqtunused5 () gf32_any_limb
  o28)

(declare-const o29 Int)

;; "Ensures"
(assert (= (to_rep o28) o29))

;; "to_rep'result'unused"
(define-fun to_repqtresultqtunused5 () Int
  o29)

;; "o"
(define-fun o30 () Int
  (+ o29 carry2))

;; "infix +'result'unused"
(define-fun infix_plqtresultqtunused2 () Int
  o30)

;; "Ensures"
(assert (in_range o30))

;; "range_check_'result'unused"
(define-fun range_check_qtresultqtunused3 () Int
  o30)

(declare-const o31 gf32_any_limb)

;; "Ensures"
(assert (= (to_rep o31) o30))

;; "of_rep'result'unused"
(define-fun of_repqtresultqtunused3 () gf32_any_limb
  o31)

;; "o"
(define-fun o32 () gf32_any_limb__init_wrapper
  (gf32_any_limb__init_wrapperqtmk o31 true))

;; "to_wrapper'result'unused"
(define-fun to_wrapperqtresultqtunused3 () gf32_any_limb__init_wrapper
  o32)

;; "int__content'result'unused"
(define-fun int__contentqtresultqtunused9 () Int
  i)

;; "o"
(define-fun o33 () Int
  (+ i 1))

;; "infix +'result'unused"
(define-fun infix_plqtresultqtunused3 () Int
  o33)

;; "map__content'result'unused"
(define-fun map__contentqtresultqtunused6 () map2
  r3)

;; "o"
(define-fun o34 () map2
  (set r3 o33 o32))

;; "set'result'unused"
(define-fun setqtresultqtunused3 () map2
  o34)

(declare-const r4 map2)

;; "r'unused"
(define-fun rqtunused4 () map__ref
  (map__refqtmk r4))

;; "H"
(assert (= r4 o34))

(declare-const usf Int)

(declare-const anyqtresultqtunused Int)

;; "H"
(assert (= anyqtresultqtunused usf))

(declare-const kqtunused Int)

;; "H"
(assert (= kqtunused usf))

(declare-const int__contentqtresultqtunused10 Int)

;; "H"
(assert (= int__contentqtresultqtunused10 i))

(declare-const o35 Bool)

;; "H"
(assert (= o35 (ite (<= usf i) true false)))

(declare-const infix_lseqqtresultqtunused2 Bool)

;; "H"
(assert (= infix_lseqqtresultqtunused2 o35))

(declare-const o36 Bool)

;; "H"
(assert (= o36 (ite (<= 0 usf) true false)))

(declare-const infix_lseqqtresultqtunused3 Bool)

;; "H"
(assert (= infix_lseqqtresultqtunused3 o36))

(declare-const andbqtresultqtunused1 Bool)

;; "H"
(assert (= andbqtresultqtunused1 (and o36 o35)))

;; "_f'unused"
(define-fun usfqtunused () Bool
  (ite (forall ((k Int))
         (=> (and (<= 0 k) (<= k i)) (= (us_attr__init (get1 r4 k)) true)))
    true
    false))

;; "any'result'unused"
(define-fun anyqtresultqtunused1 () Bool
  (ite (forall ((k Int))
         (=> (and (<= 0 k) (<= k i)) (= (us_attr__init (get1 r4 k)) true)))
    true
    false))

(declare-const usf1 Int)

(declare-const anyqtresultqtunused2 Int)

;; "H"
(assert (= anyqtresultqtunused2 usf1))

(declare-const kqtunused1 Int)

;; "H"
(assert (= kqtunused1 usf1))

(declare-const int__contentqtresultqtunused11 Int)

;; "H"
(assert (= int__contentqtresultqtunused11 i))

(declare-const o37 Bool)

;; "H"
(assert (= o37 (ite (<= usf1 i) true false)))

(declare-const infix_lseqqtresultqtunused4 Bool)

;; "H"
(assert (= infix_lseqqtresultqtunused4 o37))

(declare-const o38 Bool)

;; "H"
(assert (= o38 (ite (<= 0 usf1) true false)))

(declare-const infix_lseqqtresultqtunused5 Bool)

;; "H"
(assert (= infix_lseqqtresultqtunused5 o38))

(declare-const andbqtresultqtunused2 Bool)

;; "H"
(assert (= andbqtresultqtunused2 (and o38 o37)))

;; "_f'unused"
(define-fun usfqtunused1 () Bool
  (ite (forall ((k Int))
         (=>
           (and (<= 0 k) (<= k i))
           (in_range2 (to_rep (rec__value (get1 r4 k))))))
    true
    false))

;; "any'result'unused"
(define-fun anyqtresultqtunused3 () Bool
  (ite (forall ((k Int))
         (=>
           (and (<= 0 k) (<= k i))
           (in_range2 (to_rep (rec__value (get1 r4 k))))))
    true
    false))

;; "int__content'result'unused"
(define-fun int__contentqtresultqtunused12 () Int
  i)

;; "o"
(define-fun o39 () Int
  (+ i 1))

;; "infix +'result'unused"
(define-fun infix_plqtresultqtunused4 () Int
  o39)

;; "map__content'result'unused"
(define-fun map__contentqtresultqtunused7 () map2
  r4)

;; "o"
(define-fun o40 () gf32_any_limb__init_wrapper
  (get1 r4 o39))

;; "get'result'unused"
(define-fun getqtresultqtunused6 () gf32_any_limb__init_wrapper
  o40)

;; "__attr__init'result'unused"
(define-fun us_attr__initqtresultqtunused () Bool
  (us_attr__init o40))

;; "map__content'result'unused"
(define-fun map__contentqtresultqtunused8 () map2
  r4)

;; "int__content'result'unused"
(define-fun int__contentqtresultqtunused13 () Int
  i)

;; "o"
(define-fun o41 () Int
  (+ i 1))

;; "infix +'result'unused"
(define-fun infix_plqtresultqtunused5 () Int
  o41)

;; "temp___436"
(define-fun temp___436 () gf32_any_limb__init_wrapper
  (get1 r4 o41))

;; "get'result'unused"
(define-fun getqtresultqtunused7 () gf32_any_limb__init_wrapper
  temp___436)

;; Goal "def'vc"
;; File "sparknacl-car.ads", line 17, characters 0-0
(assert
  (not (= (us_attr__init temp___436) true)))

(check-sat)
